! B3LYP D3 def2-TZVP def2/J RIJCOSX opt freq tightSCF noautostart miniprint
%maxcore     1000
%pal nprocs   4 end
* xyz   0   1
C      1.00000000    4.71324330    7.74877149
C      2.00000000    5.75592437    1.58064363
C      3.00000000    6.62313015    7.74151126
C      4.00000000    3.74783024    1.78542399
C      5.00000000    8.38109272    4.93573919
C      6.00000000    2.90888170    8.11327283
C      7.00000000    8.38664888    5.59542722
C      8.00000000    7.80384804    8.38988939
C      9.00000000    7.73950984    0.17215507
C     10.00000000    4.23487775    6.39567355
C     11.00000000    8.78710100    6.05345738
C     12.00000000    2.49591100    7.60788425
C     13.00000000    3.39016978    3.56915362
C     14.00000000    8.01958949    0.08351863
C     15.00000000    8.05288047    2.60424461
C     16.00000000    7.18687263    6.44614182
C     17.00000000    0.12352764    6.98322947
C     18.00000000    3.77936289    0.54546983
C     19.00000000    6.12108987    1.98192575
C     20.00000000    4.95866057    8.25557080
C     21.00000000    7.22772542    5.88634876
C     22.00000000    0.26341911    2.24503751
C     23.00000000    1.65724072    3.03358280
C     24.00000000    1.17365947    8.10761017
C     25.00000000    4.74365039    2.38744443
C     26.00000000    4.44294567    6.62916315
C     27.00000000    6.70638466    6.12706793
C     28.00000000    8.00088694    7.48138227
C     29.00000000    6.52104388    3.22496714
C     30.00000000    4.19126312    7.22866567
C     31.00000000    7.86419549    1.33474981
C     32.00000000    0.11068078    4.48682480
C     33.00000000    1.10798915    1.59315673
C     34.00000000    5.40139590    0.62615003
C     35.00000000    5.21903622    2.05733848
C     36.00000000    7.97150671    2.98086054
C     37.00000000    5.62294913    7.63753457
C     38.00000000    2.74702539    6.55540928
C     39.00000000    6.73577654    8.12472756
C     40.00000000    0.36231036    2.31238612
C     41.00000000    2.85356620    3.97660564
C     42.00000000    0.87717653    6.67098273
C     43.00000000    5.32905292    5.85197091
C     44.00000000    6.28442674    5.56697301
C     45.00000000    5.78539649    4.52943257
C     46.00000000    0.97420535    2.92241697
C     47.00000000    7.75958841    2.47758996
C     48.00000000    2.57382134    2.11664191
C     49.00000000    5.58456868    7.74552669
C     50.00000000    1.42112970    3.31200743
C     51.00000000    3.51377341    4.03355387
C     52.00000000    3.19553254    6.11961481
C     53.00000000    7.73614577    4.80785680
C     54.00000000    0.29565109    5.33326829
C     55.00000000    4.32374722    8.44037749
C     56.00000000    0.84641435    3.92294481
C     57.00000000    5.02937986    6.63215342
C     58.00000000    0.99256559    4.38423048
C     59.00000000    4.87592188    3.17731166
C     60.00000000    3.52213299    6.74269589
C     61.00000000    4.32712252    4.36734651
C     62.00000000    5.49888928    0.17187601
C     63.00000000    2.49761239    3.94025031
C     64.00000000    6.36662338    5.96816139
C     65.00000000    8.07944720    7.05678478
C     66.00000000    8.28502061    6.66575599
C     67.00000000    1.36548006    7.92014206
C     68.00000000    7.90045258    4.03078645
C     69.00000000    3.47618193    2.17035199
C     70.00000000    3.99154063    1.65831620
C     71.00000000    8.78299111    2.33634424
C     72.00000000    1.47423290    6.78457964
C     73.00000000    5.42792828    5.72699577
C     74.00000000    1.67869109    6.07354944
C     75.00000000    2.91796015    0.26965788
C     76.00000000    2.53063477    8.19397193
C     77.00000000    2.82486220    0.10020634
C     78.00000000    8.26517560    0.74538034
C     79.00000000    1.93013013    5.54047909
C     80.00000000    4.92622363    3.28429043
C     81.00000000    5.48380408    0.21928719
C     82.00000000    1.39238953    0.96845477
C     83.00000000    3.77938626    7.09470659
C     84.00000000    6.64008157    2.99686109
C     85.00000000    1.85385645    2.48691229
C     86.00000000    6.97807180    0.09920173
C     87.00000000    2.63013364    2.74028003
C     88.00000000    2.70608542    2.14824513
C     89.00000000    6.76792490    0.89314420
C     90.00000000    0.02921234    1.26704143
C     91.00000000    4.49929136    1.14677792
C     92.00000000    3.86812153    3.26791558
C     93.00000000    0.11177785    3.82595109
C     94.00000000    7.99784885    2.40986811
C     95.00000000    4.97396956    8.49020810
C     96.00000000    1.57086483    5.95948883
C     97.00000000    7.72782232    0.66620809
C     98.00000000    8.24368559    1.40610028
C     99.00000000    5.09028196    6.03284796
C    100.00000000    1.71790262    4.34827443
C    101.00000000    5.68678015    8.08062120
C    102.00000000    3.01543361    8.19421018
C    103.00000000    4.81998254    4.56747961
C    104.00000000    0.85544813    2.06987012
*
