! B3LYP D3 def2-TZVP def2/J RIJCOSX opt freq tightSCF noautostart miniprint
%maxcore     1000
%pal nprocs   4 end
* xyz   0   1
Fe     4.63772015    8.61234544    1.30625966
Fe     8.59590616    2.82556840    3.83584731
Fe     0.24971875    6.82773599    4.87622634
Fe     2.98776635    7.14411332    2.74731020
Fe     4.10923689    1.21457916    3.65268900
Fe     1.84354944    2.37687469    6.79920737
Fe     2.54084096    4.39641440    8.88665983
Fe     8.71377201    6.56746951    4.90416695
Fe     2.50896768    1.45570062    8.78869203
Fe     4.67620273    1.04988195    5.64956786
Fe     7.03768414    5.55454796    8.31182163
Fe     0.35875913    4.78965514    4.16213614
Fe     0.56496226    5.81120537    7.72588008
Fe     5.37275952    2.35679603    7.61033779
Fe     4.61664612    4.62926840    6.82336033
Fe     2.48320835    0.06426051    5.85100876
Fe     6.52324578    7.57126312    2.55415250
Fe     7.49203298    8.02387978    5.98361481
Fe     7.53235085    0.56829989    7.47991347
Fe     1.49063390    3.39928346    2.87002914
Fe     6.26434591    1.61807622    3.59055792
Fe     0.05277784    2.37851814    3.81647777
Fe     6.57203633    5.92481331    3.90743354
Fe     3.09707172    4.92629834    1.77868612
Fe     5.31456221    7.60855348    6.58272558
Fe     8.80468109    7.01938975    7.16862609
Fe     6.24887952    4.53383169    0.69847211
Fe     4.42593809    1.92850507    1.20238822
Fe     7.62253845    3.53454509    8.83189041
Fe     1.82314325    8.95445306    6.87116411
Fe     8.20041291    0.15247546    2.75015630
Fe     9.05237732    2.37536560    7.69336561
Fe     3.28647021    6.89366237    0.23998190
Fe     4.04866330    3.36945011    4.32286489
Fe     3.51365506    7.17335837    5.48326608
Fe     7.01241410    4.79539582    5.54164870
Fe     6.50025155    2.50372859    1.21541531
Fe     0.41669923    1.58422047    1.73792730
Fe     7.65692661    8.50622182    0.20494386
Fe     1.07017556    3.26442455    0.84800957
O      3.49452440    0.17972124    0.74173201
O      8.01483004    2.86930674    0.19448856
O      7.48657829    0.56040770    0.84261942
O      8.72758602    6.82639774    3.06136585
O      8.39797100    5.63890834    1.05753182
O      6.07378527    6.27816603    1.48369653
O      0.21646142    0.59408110    8.73918095
O      2.51116168    4.98654594    5.05079557
O      8.75912516    4.15075234    7.58849939
O      1.24884029    8.91395879    0.02489246
O      2.46270052    5.22249803    7.29833423
O      7.53213587    1.61131570    5.68090371
O      1.78273409    2.20633714    4.47628692
O      8.27000947    4.66792730    2.75174315
O      5.72969818    3.45356493    6.12245699
O      8.56189460    7.36174891    8.87550591
O      4.31872012    5.79438567    3.47964204
O      2.59595362    8.58237182    8.71449286
O      1.54227287    5.56157273    0.34923139
O      6.17465283    3.98635419    3.77326610
*
