! B3LYP D3 def2-TZVP def2/J RIJCOSX opt freq tightSCF noautostart miniprint
%maxcore     1000
%pal nprocs   4 end
* xyz   0   1
C     -2.88000000    0.68200000    1.01300000
O     -3.49100000    1.67100000    0.29000000
C     -3.58200000    2.87700000    0.96000000
C     -4.26300000    3.89300000    0.09300000
O     -3.56900000    4.11000000   -1.09200000
C     -1.59900000    0.14500000    0.34100000
O     -1.92700000   -0.50400000   -0.84100000
C     -1.27600000   -0.06200000   -1.96100000
C     -1.68500000   -0.81700000   -3.21500000
O     -3.02000000   -0.72000000   -3.50600000
C     -1.28400000   -0.95500000    1.32800000
C     -0.09300000   -1.75000000    0.97800000
C      1.10800000   -0.75700000    0.93900000
O      2.22500000   -1.41400000    0.45300000
C      3.36900000   -0.68300000    0.36600000
C      3.26300000    0.51700000   -0.53400000
C      4.61300000    1.19400000   -0.51500000
O      5.51200000    0.67300000    0.19400000
O      4.80100000    2.33900000   -1.26500000
C      6.05800000    2.98800000   -1.26200000
C      6.38000000    3.40600000    0.15500000
O      0.22000000   -2.80800000    1.76500000
C      0.49600000   -4.01300000    1.23800000
C     -0.68300000   -4.58200000    0.50100000
O     -1.78100000   -4.75200000    1.33700000
C     -2.61400000   -1.68800000    1.26000000
C     -3.65500000   -0.58900000    1.17400000
H     -2.59300000    1.10200000    1.99900000
H     -2.59900000    3.19700000    1.34300000
H     -4.25700000    2.72900000    1.85000000
H     -5.25700000    3.47400000   -0.17700000
H     -4.40700000    4.85700000    0.60100000
H     -4.14100000    4.51100000   -1.79000000
H     -0.86200000    0.93000000    0.24000000
H     -1.27200000    1.02400000   -2.12600000
H     -0.18700000   -0.33600000   -1.82500000
H     -1.10400000   -0.40000000   -4.06300000
H     -1.44000000   -1.88100000   -3.06200000
H     -3.55400000   -1.52800000   -3.37200000
H     -1.17900000   -0.45200000    2.31800000
H     -0.14400000   -2.08000000   -0.07500000
H      0.88600000    0.10900000    0.29600000
H      1.28800000   -0.39100000    1.96100000
H      4.14100000   -1.35400000   -0.10400000
H      3.78400000   -0.39100000    1.36400000
H      2.97500000    0.20400000   -1.54200000
H      2.52200000    1.22500000   -0.06000000
H      6.82000000    2.26200000   -1.65300000
H      5.99500000    3.88200000   -1.94100000
H      6.41300000    4.51500000    0.20300000
H      5.56100000    3.10300000    0.83900000
H      7.35800000    2.98500000    0.47100000
H      0.91000000   -4.75400000    1.96800000
H      1.32200000   -3.98400000    0.45300000
H     -0.42300000   -5.53300000   -0.02700000
H     -0.97100000   -3.89100000   -0.31400000
H     -2.17700000   -5.63400000    1.12700000
H     -2.62900000   -2.33200000    0.35500000
H     -2.84100000   -2.27100000    2.15300000
H     -4.31100000   -0.80000000    0.30800000
H     -4.27400000   -0.49600000    2.09200000
*
