! B3LYP D3 def2-TZVP def2/J RIJCOSX opt freq tightSCF noautostart miniprint
%maxcore     1000
%pal nprocs   4 end
* xyz   0   1
C     -2.16600000    1.51200000    1.69200000
O     -3.43600000    1.07100000    1.78900000
C     -4.47000000    1.69500000    1.21600000
C     -4.47400000    1.87500000   -0.24200000
O     -5.50000000    2.44800000   -0.74400000
O     -3.49000000    1.49000000   -1.12100000
C     -3.64500000    1.73600000   -2.53000000
C     -3.80000000    3.19200000   -2.83200000
C     -1.10700000    0.54700000    1.30800000
O     -1.43200000   -0.71000000    1.82500000
C     -1.46300000   -1.73500000    0.93800000
C     -2.41100000   -1.63900000   -0.20600000
C     -2.32000000   -2.87000000   -1.08000000
O     -1.41500000   -3.84400000   -0.72800000
C     -1.24800000   -5.03300000   -1.47400000
C     -2.52800000   -5.81800000   -1.52800000
O     -3.05800000   -2.99000000   -2.10200000
C      0.15500000    1.07400000    1.94800000
C      1.26500000    1.16800000    0.94300000
O      0.95600000    2.01400000   -0.09200000
C      1.06000000    1.47500000   -1.35400000
C      0.67200000    2.49900000   -2.42600000
O     -0.63600000    2.90000000   -2.21300000
O      2.38200000    1.61300000    1.66200000
C      3.38100000    0.72200000    1.83300000
C      3.98400000    0.25400000    0.55100000
C      5.11300000   -0.70800000    0.84200000
O      5.80600000   -1.26700000   -0.22300000
C      6.86100000   -2.16600000    0.04800000
C      7.92500000   -1.48200000    0.86500000
O      5.38500000   -0.96800000    2.02600000
C     -0.21100000    2.43300000    2.51700000
C     -1.62900000    2.07300000    3.01300000
H     -2.12800000    2.39200000    1.01600000
H     -5.39900000    1.08300000    1.46800000
H     -4.72600000    2.69500000    1.64100000
H     -2.80300000    1.26600000   -3.04000000
H     -4.56400000    1.21300000   -2.90400000
H     -4.85900000    3.51700000   -2.90100000
H     -3.36600000    3.80100000   -2.00300000
H     -3.27300000    3.49300000   -3.77500000
H     -0.99200000    0.44000000    0.23600000
H     -1.75300000   -2.65900000    1.52100000
H     -0.46900000   -2.00300000    0.51200000
H     -3.46300000   -1.42200000    0.05900000
H     -2.09700000   -0.81600000   -0.91900000
H     -0.91400000   -4.75800000   -2.50000000
H     -0.48900000   -5.66700000   -0.95700000
H     -3.31800000   -5.23700000   -1.01900000
H     -2.41200000   -6.83400000   -1.06200000
H     -2.84600000   -5.91500000   -2.59400000
H      0.47500000    0.46500000    2.81500000
H      1.50500000    0.15000000    0.62000000
H      2.16000000    1.22500000   -1.48800000
H      0.49600000    0.56600000   -1.55700000
H      1.36500000    3.34700000   -2.29700000
H      0.78300000    2.09100000   -3.43000000
H     -0.97400000    2.56400000   -1.33700000
H      4.16400000    1.09600000    2.53600000
H      2.99100000   -0.20100000    2.36600000
H      3.26600000   -0.29400000   -0.11100000
H      4.34200000    1.12600000   -0.02900000
H      6.45100000   -3.06300000    0.55300000
H      7.30400000   -2.42400000   -0.93700000
H      8.88700000   -2.00000000    0.62500000
H      7.98900000   -0.41400000    0.60000000
H      7.72800000   -1.55300000    1.97000000
H     -0.36700000    3.18600000    1.73000000
H      0.41700000    2.75700000    3.34400000
H     -1.43800000    1.28200000    3.76400000
H     -2.18200000    2.94300000    3.36500000
*
