Fe O 
 1.0000000000000000
     9.0612039951451866    0.0000000000000000    0.0000000000000000
     0.0000000000000000    9.0612039951451866    0.0000000000000000
     0.0000000000000000    0.0000000000000000    9.0612039951451866
 Fe  O  
  40  20
Cartesian
  4.6377201505356664  8.6123454423890262  1.3062596587137281
  8.5959061603922660  2.8255683987693354  3.8358473106809274
  0.2497187470207497  6.8277359907184270  4.8762263397031909
  2.9877663468676539  7.1441133173925966  2.7473101984848163
  4.1092368879519894  1.2145791626120508  3.6526890032896349
  1.8435494396479524  2.3768746883915663  6.7992073694512420
  2.5408409581368048  4.3964143959283177  8.8866598330264868
  8.7137720051864136  6.5674695069781865  4.9041669457662778
  2.5089676843164752  1.4557006237412791  8.7886920292268655
  4.6762027291353645  1.0498819506200880  5.6495678638084943
  7.0376841386402358  5.5545479605389980  8.3118216273888379
  0.3587591322089655  4.7896551440425590  4.1621361371147616
  0.5649622556884738  5.8112053684048526  7.7258800824329077
  5.3727595221319930  2.3567960325635933  7.6103377938184176
  4.6166461171527198  4.6292684010034169  6.8233603264959841
  2.4832083537697245  0.0642605056718950  5.8510087587324451
  6.5232457819914780  7.5712631227726179  2.5541524954584345
  7.4920329794665967  8.0238797784942015  5.9836148121881862
  7.5323508529252701  0.5682998905654517  7.4799134726653520
  1.4906339002055404  3.3992834634220883  2.8700291402209266
  6.2643459060504982  1.6180762159341984  3.5905579201814568
  0.0527778444625401  2.3785181398757080  3.8164777662018734
  6.5720363293510013  5.9248133117825823  3.9074335388353028
  3.0970717180856981  4.9262983395815558  1.7786861196363593
  5.3145622062573752  7.6085534848832506  6.5827255801299982
  8.8046810891282501  7.0193897542666104  7.1686260918784077
  6.2488795197096856  4.5338316891895207  0.6984721135460883
  4.4259380878929271  1.9285050652685640  1.2023882214719230
  7.6225384482122225  3.5345450884419436  8.8318904101282989
  1.8231432462423285  8.9544530558145734  6.8711641063310145
  8.2004129103138990  0.1524754591717914  2.7501562982657135
  9.0523773161671084  2.3753655969512435  7.6933656135273703
  3.2864702101991785  6.8936623743295025  0.2399819003382922
  4.0486633033388291  3.3694501141199997  4.3228648858610681
  3.5136550599756458  7.1733583728766730  5.4832660803699458
  7.0124141007784280  4.7953958188221719  5.5416486961949643
  6.5002515505980121  2.5037285872296065  1.2154153112582076
  0.4166992252171400  1.5842204744913049  1.7379272982392999
  7.6569266133090377  8.5062218186717793  0.2049438553520200
  1.0701755561068906  3.2644245512019516  0.8480095666826701
  3.4945244027700810  0.1797212381724830  0.7417320101508887
  8.0148300360899842  2.8693067413236202  0.1944885614741885
  7.4865782906451086  0.5604076978945038  0.8426194154274954
  8.7275860197728861  6.8263977365489055  3.0613658519999776
  8.3979710023329641  5.6389083375289548  1.0575318205368398
  6.0737852653990618  6.2781660277211371  1.4836965335027277
  0.2164614166640888  0.5940810986280994  8.7391809486241101
  2.5111616811299844  4.9865459409120749  5.0507955712091581
  8.7591251590448955  4.1507523435711748  7.5884993930196254
  1.2488402871416329  8.9139587893549095  0.0248924648325139
  2.4627005175827108  5.2224980283654112  7.2983342319608600
  7.5321358665348752  1.6113157004980831  5.6809037094139008
  1.7827340920659349  2.2063371350175980  4.4762869238086065
  8.2700094711050536  4.6679272950062209  2.7517431538033539
  5.7296981833720135  3.4535649313192978  6.1224569901378354
  8.5618945962204815  7.3617489133735399  8.8755059057906145
  4.3187201207266241  5.7943856659749313  3.4796420442308071
  2.5959536155153580  8.5823718215247844  8.7144928647046260
  1.5422728681942810  5.5615727304869198  0.3492313923695042
  6.1746528296219534  3.9863541850756437  3.7732661015078848
