Fe
 1.0000000000000000
     8.6657504061166701    0.0000000000000000    0.0000000000000000
     0.0000000000000000    8.6657504061166701    0.0000000000000000
     0.0000000000000000    0.0000000000000000    8.6657504061166701
 Fe 
  40
Cartesian
  4.4353184521055438  8.2364811624356253  1.2492512224707879
  8.2207593317919248  2.7022535318998151  3.6684413471040251
  0.2388203967783350  6.5297565275129399  4.6634156350789304
  2.8573727561615545  6.8323263569287347  2.6274107150665471
  3.9298995199400086  1.1615718923561857  3.4932765260151140
  1.7630923345159084  2.2731419364637779  6.5024729665794805
  2.4299523083961967  4.2045438837250844  8.4988237874713093
  8.3334812165369776  6.2808487236075266  4.6901368432614268
  2.3994700639063060  1.3921702102865146  8.4051315434805804
  6.7305420135357288  5.3121336050512449  7.9490729578216541
  0.3431019870321432  4.5806226227644444  3.9804901136581465
  0.5403058908392380  5.5575898421735994  7.3887033663321606
  5.1382788684404312  2.2539395633587516  7.2782036319678172
  4.4151641422097905  4.4272355580463509  6.5255718282132680
  2.3748349349249480  0.0614560165979978  5.5956561130666245
  6.2385550325076586  7.2408342772258383  2.4426828969595658
  7.1650619353937053  7.6736976108662631  5.7224749069270535
  7.2036202360881223  0.5434978629884288  7.1534713541595680
  1.4255789112570867  3.2509302372442233  2.7447738954736627
  5.9909541942215814  1.5474593258105800  3.4338569986580834
  6.2852162384381263  5.6662396509618258  3.7369033733461792
  2.9619077677925696  4.7113023677375807  1.7010598119026117
  5.0826214288832183  7.2764971947341079  6.2954389835974682
  5.9761627996358442  4.3359639428611274  0.6679890448185634
  4.2327790879837517  1.8443402843047174  1.1499129943562501
  7.2898718193107630  3.3802887068886349  8.4464446390736985
  1.7435767183917350  8.5636583445812242  6.5712893316202416
  7.8425263956038362  0.1458210490513966  2.6301326039397441
  8.6573089454697261  2.2716987055455853  7.3576079101131207
  3.1430404363462894  6.5928057189733220  0.2295084904204151
  3.8719695179510145  3.2223988898682108  4.1342042580995679
  3.3603103714750850  6.8602950850992759  5.2439626442876772
  6.2165643268417199  2.3944596141103909  1.1623715493856366
  0.3985134295716817  1.5150811335399583  1.6620798073399017
  7.3227591989363621  8.1349890388923267  0.1959995932879808
  8.0314625587299613  5.3928122843473467  1.0113784887977884
  0.9807390233841974  4.0376611738424799  0.7980199918193226
  0.2070144994385331  0.5681539146962116  8.3577812501784443
  2.4015683092154143  4.7689206131691178  4.8303662290208420
  1.1943377757824183  8.5249313491172387  0.0238060954534493
